param N := 21;
param: T  w  W  H :=
    1  8  21 2  12
    2  10 16 20 23
    3  9  22 41 48
    4  7  6  48 43
    5  2  19 48 9
    6  2  7  49 35
    7  8  7  11 17
    8  8  13 18 5
    9  2  11 3  19
    10 8  15 26 6
    11 10 8  10 50
    12 7  12 1  24
    13 2  16 31 19
    14 5  20 20 17
    15 1  24 32 1
    16 9  8  38 19
    17 1  17 18 33
    18 2  13 27 24
    19 9  1  41 13
    20 9  5  22 32
    21 4  9  22 48;
param board_W := 100;
param board_H := 100;
